41
75
60	2
58	5
57	2
55	2
54	2
52	4
51	1
50	2
49	1
47	2
45	1
44	2
43	3
42	1
41	4
40	2
39	2
38	2
37	2
36	5
35	4
34	2
33	1
32	1
31	1
30	3
29	3
28	1
27	3
26	3
25	3
24	2
23	3
22	3
21	4
20	1
19	6
18	5
17	1
16	2
15	1
